50
    1   495   485
    2   104    94
    3   336   326
    4   516   506
    5   258   248
    6   426   416
    7   431   421
    8  1002   992
    9   332   322
   10   659   649
   11   805   795
   12   247   237
   13    53    43
   14   467   457
   15   855   845
   16   825   815
   17   965   955
   18   456   446
   19   262   252
   20   432   422
   21    19     9
   22   801   791
   23   911   901
   24   369   359
   25   132   122
   26   677   667
   27   104    94
   28   608   598
   29   748   738
   30    17     7
   31   584   574
   32   554   544
   33   725   715
   34   344   334
   35   892   882
   36   776   766
   37   377   367
   38  1004   994
   39   994   984
   40   903   893
   41   309   299
   42   643   633
   43   443   433
   44   141   131
   45   692   682
   46   438   428
   47    82    72
   48   710   700
   49   884   874
   50   627   617
4322
